
Log started (V11.0.0) Tue May 13 16:26:20 2008

Tried aggregator 1 time.
Reduced MIP has 120 rows, 2001 columns, and 4020 nonzeros.
Presolve time =    0.02 sec.
Clique table members: 100.
MIP emphasis: balance optimality and feasibility.
MIP search method: dynamic search.
Parallel mode: none, using 1 thread.
Root relaxation solution time =    0.06 sec.

        Nodes                                         Cuts/
   Node  Left     Objective  IInf  Best Integer     Best Node    ItCnt     Gap

*     0+    0                        11112.0000      503.8976      266   95.47%
*     0+    0                          508.0000      503.8976      266    0.81%
      0     0      504.0000    35      508.0000      Fract: 6      280    0.79%
      0     0      504.0000    39      508.0000     Covers: 1      291    0.79%
      0     0      504.0000    35      508.0000       Cuts: 3      294    0.79%
*     0+    0                          507.0000      504.0000      294    0.59%
      0     2      504.0000    35      507.0000      504.0000      294    0.59%
    100    59    infeasible            507.0000      504.0000     2817    0.59%
    200   102      506.0000    32      507.0000      504.0000     4995    0.59%
    300   124      506.0000    39      507.0000      504.0000     7592    0.59%
    400   156    infeasible            507.0000      504.0000    10387    0.59%
    500   197      506.0000    27      507.0000      505.0000    13523    0.39%
    600   198      506.0000    27      507.0000      505.0000    15593    0.39%
    700   166      506.0000    31      507.0000      505.0000    18328    0.39%
    800   152    infeasible            507.0000      505.0000    21489    0.39%
    900   215      506.0000    29      507.0000      505.0000    24596    0.39%
   1000   294      506.0000    38      507.0000      505.0000    27413    0.39%
Elapsed time =   7.83 sec. (tree size =  0.69 MB, solutions = 3)
   1100   370      506.0000    32      507.0000      505.0000    29657    0.39%
   1200   443      505.0000    42      507.0000      505.0000    33675    0.39%
   1300   516      506.0000    29      507.0000      505.0000    39863    0.39%
   1400   562    infeasible            507.0000      505.0000    52072    0.39%
   1500   630      506.0000    21      507.0000      505.0000    60561    0.39%
   1600   700    infeasible            507.0000      505.0000    66854    0.39%
   1700   778      506.0000    31      507.0000      505.0000    70709    0.39%
   1800   846      505.0000    31      507.0000      505.0000    76293    0.39%
   1900   921      506.0000    47      507.0000      505.0000    82103    0.39%
   2000   967      506.0000    48      507.0000      505.0000    94737    0.39%
Elapsed time =  17.89 sec. (tree size =  2.74 MB, solutions = 3)
   2100  1014      505.7968   102      507.0000      505.0000   106342    0.39%
   2200  1093      506.0000    37      507.0000      505.0000   114275    0.39%
*  2223+  360                          506.0000      505.0000   117364    0.20%
   2300   392    infeasible            506.0000      505.0000   138164    0.20%
   2400   312    infeasible            506.0000      505.0000   238318    0.20%
   2500   258    infeasible            506.0000      505.0000   326228    0.20%
   2600   158    infeasible            506.0000      505.0000   443638    0.20%
   2700    92    infeasible            506.0000      505.0000   526534    0.20%
   2800    90    infeasible            506.0000      505.0000   570071    0.20%
   2900    26    infeasible            506.0000      505.0000   671481    0.20%
   3000    20      505.0000   118      506.0000      505.0000   734148    0.20%
Elapsed time = 129.39 sec. (tree size =  0.15 MB, solutions = 4)
   3100     6      505.0000    99      506.0000      505.0000   797380    0.20%

Cover cuts applied:  434
Mixed integer rounding cuts applied:  11
Gomory fractional cuts applied:  2

Solution pool: 4 solutions saved.

MIP - Integer optimal solution:  Objective = 5.0600000000e+002
Solution time =  149.33 sec.  Iterations = 804980  Nodes = 3107


Incumbent solution
Variable Name           Solution Value
Cmax                        506.000000
X_1_19                        1.000000
X_2_6                         1.000000
X_3_1                         1.000000
X_4_12                        1.000000
X_5_5                         1.000000
X_6_4                         1.000000
X_7_8                         1.000000
X_8_11                        1.000000
X_9_19                        1.000000
X_10_7                        1.000000
X_11_11                       1.000000
X_12_5                        1.000000
X_13_6                        1.000000
X_14_4                        1.000000
X_15_12                       1.000000
X_16_1                        1.000000
X_17_18                       1.000000
X_18_16                       1.000000
X_19_20                       1.000000
X_20_12                       1.000000
X_21_16                       1.000000
X_22_15                       1.000000
X_23_15                       1.000000
X_24_20                       1.000000
X_25_3                        1.000000
X_26_18                       1.000000
X_27_17                       1.000000
X_28_1                        1.000000
X_29_7                        1.000000
X_30_16                       1.000000
X_31_4                        1.000000
X_32_19                       1.000000
X_33_13                       1.000000
X_34_2                        1.000000
X_35_9                        1.000000
X_36_18                       1.000000
X_37_17                       1.000000
X_38_1                        1.000000
X_39_10                       1.000000
X_40_2                        1.000000
X_41_10                       1.000000
X_42_18                       1.000000
X_43_4                        1.000000
X_44_8                        1.000000
X_45_9                        1.000000
X_46_2                        1.000000
X_47_13                       1.000000
X_48_2                        1.000000
X_49_17                       1.000000
X_50_15                       1.000000
X_51_4                        1.000000
X_52_14                       1.000000
X_53_12                       1.000000
X_54_6                        1.000000
X_55_14                       1.000000
X_56_10                       1.000000
X_57_9                        1.000000
X_58_3                        1.000000
X_59_17                       1.000000
X_60_9                        1.000000
X_61_5                        1.000000
X_62_20                       1.000000
X_63_17                       1.000000
X_64_16                       1.000000
X_65_14                       1.000000
X_66_8                        1.000000
X_67_15                       1.000000
X_68_7                        1.000000
X_69_19                       1.000000
X_70_5                        1.000000
X_71_6                        1.000000
X_72_19                       1.000000
X_73_3                        1.000000
X_74_7                        1.000000
X_75_3                        1.000000
X_76_3                        1.000000
X_77_20                       1.000000
X_78_8                        1.000000
X_79_18                       1.000000
X_80_15                       1.000000
X_81_14                       1.000000
X_82_8                        1.000000
X_83_1                        1.000000
X_84_20                       1.000000
X_85_10                       1.000000
X_86_9                        1.000000
X_87_13                       1.000000
X_88_2                        1.000000
X_89_7                        1.000000
X_90_11                       1.000000
X_91_10                       1.000000
X_92_13                       1.000000
X_93_11                       1.000000
X_94_14                       1.000000
X_95_16                       1.000000
X_96_6                        1.000000
X_97_5                        1.000000
X_98_13                       1.000000
X_99_12                       1.000000
X_100_11                      1.000000
All other variables in the range 1-2001 are 0.
